RT is False
Default write of storage_offers_DA.csv just to have a file (but constraint should be inactive)
Reading model...
...model read.
creating competitive generators file...
...competitive generators recorded.
Loading data...
.. day-ahead data with real-time VRE data read.
Compiling instance...
...instance created.
Creating Offer Mitigation (model will solve as dispatch if TRUE)...
NOTE: storage offers will not be mitigated
...storage offer mitigation file created
Converting model to MPEC...
...converted
NOTE: initial MIP solve with only storage competitive to get feasible solution
Solving...

Welcome to IBM(R) ILOG(R) CPLEX(R) Interactive Optimizer 12.9.0.0
  with Simplex, Mixed Integer & Barrier Optimizers
5725-A06 5725-A29 5724-Y48 5724-Y49 5724-Y54 5724-Y55 5655-Y21
Copyright IBM Corp. 1988, 2019.  All Rights Reserved.

Type 'help' for a list of available commands.
Type 'help' followed by a command name for more
information on commands.

CPLEX> Logfile 'cplex.log' closed.
Logfile 'C:\Users\llavin\Desktop\test919\logs\tmp6np6mymq.cplex.log' open.
CPLEX> New value for parallel optimization mode: -1
CPLEX> New value for mixed integer optimality gap tolerance: 0.01
CPLEX> New value for integrality tolerance: 1e-09
CPLEX> New value for feasibility tolerance: 0.01
CPLEX> New value for deterministic time limit in ticks: 100000
CPLEX> Problem 'C:\Users\llavin\Desktop\test919\logs\tmplfmpw7cb.pyomo.lp' read.
Read time = 0.22 sec. (13.86 ticks)
CPLEX> Problem name         : C:\Users\llavin\Desktop\test919\logs\tmplfmpw7cb.pyomo.lp
Objective sense      : Maximize
Variables            :   53321  [Nneg: 1,  Box: 21806,  Free: 4416,
                                 Binary: 27098]
Objective nonzeros   :    8980
Linear constraints   :  122164  [Less: 40983,  Greater: 58612,  Equal: 22569]
  Nonzeros           :  288505
  RHS nonzeros       :   66982

Variables            : Min LB: -5000.000        Max UB: 1000000.       
Objective nonzeros   : Min   : 0.008333333      Max   : 834.2500       
Linear constraints   :
  Nonzeros           : Min   : 0.008333333      Max   : 1000000.       
  RHS nonzeros       : Min   : 0.008333333      Max   : 1000000.       
CPLEX> CPXPARAM_Parallel                                -1
CPXPARAM_Simplex_Tolerances_Feasibility          0.01
CPXPARAM_DetTimeLimit                            100000
CPXPARAM_MIP_Tolerances_MIPGap                   0.01
CPXPARAM_MIP_Tolerances_Integrality              1.0000000000000001e-09
Tried aggregator 3 times.
MIP Presolve eliminated 88098 rows and 18954 columns.
MIP Presolve added 3376 rows and 0 columns.
MIP Presolve modified 24537 coefficients.
Aggregator did 12869 substitutions.
Reduced MIP has 24573 rows, 20942 columns, and 68822 nonzeros.
Reduced MIP has 8283 binaries, 0 generals, 0 SOSs, and 0 indicators.
Presolve time = 0.28 sec. (171.68 ticks)
Probing fixed 393 vars, tightened 2856 bounds.
Probing time = 1.22 sec. (893.67 ticks)
Tried aggregator 2 times.
MIP Presolve eliminated 882 rows and 787 columns.
MIP Presolve modified 2190 coefficients.
Aggregator did 43 substitutions.
Reduced MIP has 23648 rows, 20112 columns, and 66137 nonzeros.
Reduced MIP has 7890 binaries, 0 generals, 0 SOSs, and 0 indicators.
Presolve time = 0.09 sec. (68.20 ticks)
Probing time = 0.05 sec. (15.43 ticks)
Clique table members: 6347.
MIP emphasis: balance optimality and feasibility.
MIP search method: dynamic search.
Parallel mode: opportunistic, using up to 32 threads.
Root relaxation solution time = 0.27 sec. (226.27 ticks)

        Nodes                                         Cuts/
   Node  Left     Objective  IInf  Best Integer    Best Bound    ItCnt     Gap

      0     0      348.4272  1518                    348.4272     5140         
*     0+    0                          348.4272      348.4272             0.00%
      0     0        cutoff            348.4272      348.4272     5140    0.00%
Elapsed time = 3.56 sec. (2620.13 ticks, tree = 0.01 MB, solutions = 1)

Root node processing (before b&c):
  Real time             =    3.58 sec. (2621.94 ticks)
Parallel b&c, 32 threads:
  Real time             =    0.00 sec. (0.00 ticks)
  Sync time (average)   =    0.00 sec.
  Wait time (average)   =    0.00 sec.
                          ------------
Total (root+branch&cut) =    3.58 sec. (2621.94 ticks)

Solution pool: 1 solution saved.

MIP - Integer optimal solution:  Objective =  3.4842723036e+02
Solution time =    3.59 sec.  Iterations = 5140  Nodes = 0
Deterministic time = 2622.09 ticks  (729.58 ticks/sec)

CPLEX> Incumbent solution written to file 'C:\Users\llavin\Desktop\test919\logs\tmp9v7v0127.cplex.sol'.
CPLEX> NOTE: no warmstart specified for MIP iteration, default behavior is true
NOTE: resolving with all competitive generators using storage-only solution to warmstart
Solving...

Welcome to IBM(R) ILOG(R) CPLEX(R) Interactive Optimizer 12.9.0.0
  with Simplex, Mixed Integer & Barrier Optimizers
5725-A06 5725-A29 5724-Y48 5724-Y49 5724-Y54 5724-Y55 5655-Y21
Copyright IBM Corp. 1988, 2019.  All Rights Reserved.

Type 'help' for a list of available commands.
Type 'help' followed by a command name for more
information on commands.

CPLEX> Logfile 'cplex.log' closed.
Logfile 'C:\Users\llavin\Desktop\test919\logs\tmpyyg7jp90.cplex.log' open.
CPLEX> New value for parallel optimization mode: -1
CPLEX> New value for mixed integer optimality gap tolerance: 0.01
CPLEX> New value for integrality tolerance: 1e-09
CPLEX> New value for feasibility tolerance: 0.01
CPLEX> New value for deterministic time limit in ticks: 100000
CPLEX> Problem 'C:\Users\llavin\Desktop\test919\logs\tmp1ee1g2mh.pyomo.lp' read.
Read time = 0.22 sec. (13.88 ticks)
CPLEX> MIP start file 'C:\Users\llavin\Desktop\test919\logs\tmp38wh9wr7.cplex.mst' read.
CPLEX> Problem name         : C:\Users\llavin\Desktop\test919\logs\tmp1ee1g2mh.pyomo.lp
Objective sense      : Maximize
Variables            :   54041  [Nneg: 1,  Box: 22526,  Free: 4416,
                                 Binary: 27098]
Objective nonzeros   :    9676
Linear constraints   :  122164  [Less: 40983,  Greater: 58612,  Equal: 22569]
  Nonzeros           :  288505
  RHS nonzeros       :   66982

Variables            : Min LB: -5000.000        Max UB: 1000000.       
Objective nonzeros   : Min   : 0.008333333      Max   : 786.9417       
Linear constraints   :
  Nonzeros           : Min   : 0.008333333      Max   : 1000000.       
  RHS nonzeros       : Min   : 0.008333333      Max   : 1000000.       
CPLEX> CPXPARAM_Parallel                                -1
CPXPARAM_Simplex_Tolerances_Feasibility          0.01
CPXPARAM_DetTimeLimit                            100000
CPXPARAM_MIP_Tolerances_MIPGap                   0.01
CPXPARAM_MIP_Tolerances_Integrality              1.0000000000000001e-09
Warning:  No solution found from 1 MIP starts.
Retaining values of one MIP start for possible repair.
Tried aggregator 3 times.
MIP Presolve eliminated 88098 rows and 19674 columns.
MIP Presolve added 3376 rows and 0 columns.
MIP Presolve modified 24537 coefficients.
Aggregator did 12869 substitutions.
Reduced MIP has 24573 rows, 20942 columns, and 68822 nonzeros.
Reduced MIP has 8283 binaries, 0 generals, 0 SOSs, and 0 indicators.
Presolve time = 0.28 sec. (172.04 ticks)
Probing fixed 393 vars, tightened 2856 bounds.
Probing time = 1.20 sec. (893.67 ticks)
Tried aggregator 2 times.
MIP Presolve eliminated 882 rows and 787 columns.
MIP Presolve modified 2190 coefficients.
Aggregator did 43 substitutions.
Reduced MIP has 23648 rows, 20112 columns, and 66137 nonzeros.
Reduced MIP has 7890 binaries, 0 generals, 0 SOSs, and 0 indicators.
Presolve time = 0.11 sec. (68.22 ticks)
Probing time = 0.05 sec. (15.43 ticks)
Clique table members: 6347.
MIP emphasis: balance optimality and feasibility.
MIP search method: dynamic search.
Parallel mode: opportunistic, using up to 32 threads.
Root relaxation solution time = 0.28 sec. (221.98 ticks)

        Nodes                                         Cuts/
   Node  Left     Objective  IInf  Best Integer    Best Bound    ItCnt     Gap

      0     0    94236.0964  1670                  94236.0964     5157         
      0     0    90509.8616   630                   Cuts: 488     5391         
      0     0    90087.3825   568                   Cuts: 154     5472         
      0     0    89949.4526   554                    Cuts: 83     5515         
      0     0    89949.4526   524                    Cuts: 64     5544         
      0     0    89949.4526   520                    Cuts: 60     5576         
      0     0    89949.4526   497                    Cuts: 61     5603         
      0     0    89949.4526   491                    Cuts: 59     5626         
Repair heuristic found nothing.
      0     2    89949.4526   491                    Cuts: 18     5626         
Elapsed time = 11.25 sec. (6587.12 ticks, tree = 0.02 MB, solutions = 0)
    219   102    86022.5377   462                  86557.5750     8709         
    724   194    63476.9777   417                  85040.4711    14980         
   1641   285    infeasible                        85040.4711    20580         
   2364   384    45704.6693   399                  85040.4711    25333         
   3030   461    infeasible                        85040.4711    29237         
   3836   700     2837.6478   326                  85040.4711    37075         
   4694  1397     8036.1957   312                  85040.4711    46518         
   5679  1475     1406.6089   327                  85040.4711    47103         
   6863  3812     4090.1834   252                  85040.4711    54229         
  11597  8430    20487.3679   290                  85040.4711    56148         
Elapsed time = 28.95 sec. (9689.38 ticks, tree = 79.72 MB, solutions = 0)
  14147  8939    24676.0798   260                  85040.4711    56723         
  14914 11542  -142622.7230    32                  84815.4125    63184         
  16196 11390    12352.4656   327                  84815.4125    61300         
  18182 11550    11332.6485   332                  84815.4125    63894         
  20627 12969    19466.0089   355                  83609.5538    98076         
  23673 12266    10051.0790   214                  83438.6892    79358         
  26603 12397     8153.7955    85                  83438.6892    79578         
  29186 12222    11021.1930   258                  83438.6892    79364         
  32055 12621    -3813.3882   266                  83438.6892    79337         
  34963 13965    18804.1938   384                  83438.6892   102031         
Elapsed time = 80.97 sec. (19232.03 ticks, tree = 135.87 MB, solutions = 0)
  37773 14387    27196.9137   372                  83438.6892   120344         
  40789 14116    15276.1453   368                  83438.6892   103762         
* 42481+13484                        12987.6518    83438.6892           542.45%
  45064 18907    21663.3580   310    12987.6518    83438.6892   148924  542.45%
  47343 19003    30107.5865   403    12987.6518    83438.6892   149171  542.45%
  49240 18656    18486.2458   281    12987.6518    83438.6892   147727  542.45%
  50838 22053    26233.7087   295    12987.6518    83438.6892   172180  542.45%
  52386 22168    26178.0468   185    12987.6518    83438.6892   172350  542.45%
  53886 24231    12945.8722   269    12987.6518    83438.6892   182488  542.45%
  55287 19895     9416.2286   346    12987.6518    83438.6892   153898  542.45%
Elapsed time = 106.81 sec. (28398.46 ticks, tree = 196.58 MB, solutions = 1)
  56576 23013    25797.9696   314    12987.6518    83438.6892   175008  542.45%
  57882 25977    27548.7743   317    12987.6518    83438.6892   193342  542.45%
  59124 20822    29655.4187   393    12987.6518    83438.6892   165528  542.45%
  60340 20286    20301.5829    70    12987.6518    83438.6892   155043  542.45%
  61339 25420    13979.2776   367    12987.6518    83438.6892   189765  542.45%
  62469 24838    16851.3550   369    12987.6518    83438.6892   185924  542.45%
  63536 23616    13802.4574    96    12987.6518    83438.6892   176760  542.45%
  64502 21018    16617.9317   286    12987.6518    83438.6892   160903  542.45%
  65412 25778    13254.4196   284    12987.6518    83438.6892   191580  542.45%
  66280 21406    22873.4593   345    12987.6518    83438.6892   169597  542.45%
Elapsed time = 121.03 sec. (37942.76 ticks, tree = 211.72 MB, solutions = 1)
  67162 21511    22873.4593   254    12987.6518    83438.6892   169756  542.45%
  68000 26084    12723.3022   228    12987.6518    83438.6892   192704  542.45%
  68842 23321    26218.3578   366    12987.6518    83438.6892   184431  542.45%
  69683 26440    21974.0485   328    12987.6518    83438.6892   196073  542.45%
  70601 25623  -102358.2346   247    12987.6518    83438.6892   189859  542.45%
  71300 24281    28524.1242   322    12987.6518    83438.6892   186047  542.45%
  71750 15800    46845.3316   386    12987.6518    83438.6892   205209  542.45%
  72124 25942    25975.4663   338    12987.6518    83438.6892   191280  542.45%
  72454 26134    25975.4663   197    12987.6518    83438.6892   191440  542.45%
  72783 26821    18015.8007   359    12987.6518    83438.6892   199146  542.45%
Elapsed time = 127.86 sec. (47492.46 ticks, tree = 262.15 MB, solutions = 1)
  73085 16281    23193.2412   326    12987.6518    83438.6892   206169  542.45%
  73245 16411    34398.7361   352    12987.6518    83438.6892   206476  542.45%
  73402 16558    49676.6616   390    12987.6518    83438.6892   206632  542.45%
  73577 16726    40541.8484   401    12987.6518    83438.6892   206831  542.45%
  73745 16891    34219.1993   319    12987.6518    83438.6892   207086  542.45%
  73763 13483        cutoff          12987.6518    83438.6892   197174  542.45%
  73766 13736        cutoff          12987.6518    83438.6892   201402  542.45%
* 73770 29550      integral     0    12987.6518    12987.6518   424845    0.00%

GUB cover cuts applied:  2
Clique cuts applied:  3
Cover cuts applied:  60
Implied bound cuts applied:  188
Flow cuts applied:  1152
Mixed integer rounding cuts applied:  1507
Gomory fractional cuts applied:  92

Root node processing (before b&c):
  Real time             =    9.25 sec. (6545.52 ticks)
Parallel b&c, 32 threads:
  Real time             =  124.30 sec. (51867.22 ticks)
  Sync time (average)   =    0.45 sec.
  Wait time (average)   =    0.00 sec.
                          ------------
Total (root+branch&cut) =  133.55 sec. (58412.74 ticks)

Solution pool: 1 solution saved.

MIP - Integer optimal solution:  Objective =  1.2987651776e+04
Solution time =  133.58 sec.  Iterations = 424845  Nodes = 73770
Deterministic time = 58412.89 ticks  (437.29 ticks/sec)

CPLEX> Incumbent solution written to file 'C:\Users\llavin\Desktop\test919\logs\tmp8q2m8g4u.cplex.sol'.
CPLEX> Exporting results... 
